benchmarks_vrp/CMT5/no_cluster/CMT5_3.vrp
NAME: CMT5_3
TYPE: CVRP
COMMENT: 1291.29 - Cluster Nr.3
DIMENSION: 12
CAPACITY: 200
EDGE_WEIGHT_TYPE: EUC_2D
NODE_COORD_TYPE: TWOD_COORDS
NODE_COORD_SECTION: 
3 25 30
8 25 24
12 26 27
5 35 35
6 25 32
1 30 25
2 22 27
4 26 29
9 20 20
7 21 24
10 26 35
11 19 21
DEPOT_SECTION: 
5
-1
DEMAND_SECTION: 
12 27
9 8
5 0
8 20
10 15
1 23
3 3
6 25
7 28
11 10
2 11
4 27
EOF
