benchmarks_vrp/CMT5/no_cluster/CMT5_3.tour
NAME: CMT5_3 solution
TYPE: TOUR
TOUR_SECTION:
5 1 12 8 9 11 7 2 4 3 6 10 -1
-1
EOF